NAME: ACTUAL_TOURS/amz2018
TYPE: TOUR
COMMENT: RouteID_d6c1010d-366d-4712-8549-f4d9f7f8ada5
DIMENSION: 170
TOUR_SECTION
21
115
161
88
129
33
25
68
82
5
59
6
165
116
158
26
60
23
29
132
73
156
159
24
114
135
85
106
90
111
50
134
39
48
164
120
157
151
74
107
94
28
46
155
96
136
79
8
11
36
22
43
52
87
56
168
41
93
128
131
31
35
17
2
101
150
18
119
16
133
118
89
54
3
1
100
167
34
7
123
162
53
149
78
77
160
152
105
146
148
92
13
121
71
40
124
69
84
113
125
99
117
62
12
66
139
61
163
102
127
30
45
37
98
58
9
38
76
97
170
147
138
153
20
110
55
108
65
112
19
95
42
67
126
154
64
10
109
104
49
103
166
122
86
83
81
169
72
142
27
15
47
4
91
143
140
75
63
70
44
51
32
80
57
14
145
141
130
137
144
-1
EOF
